 200 98 
 67 27 54 71 55 9 53 90 76 15 35 83 
 28 88 82 90 56 1 84 90 32 88 79 16 
 61 65 60 57 27 91 62 100 48 39 24 58 
 39 29 61 53 39 4 82 95 95 91 3 67 
 81 89 18 92 35 47 41 58 71 49 27 63 
 88 94 56 49 22 27 39 95 91 49 42 47 
 9 57 22 25 52 75 83 21 19 69 83 71 
 98 56 98 33 76 48 42 43 50 30 20 79 
 43 23 
 70 
 1 4 5 6 9 10 11 12 14 15 17 18 
 19 20 22 23 25 26 27 28 29 30 31 32 
 34 35 36 38 40 41 42 43 46 47 48 50 
 51 52 53 54 55 58 60 61 62 66 67 68 
 69 71 74 75 76 77 78 80 81 82 83 85 
 86 89 90 91 92 93 95 96 97 98 
 70 
 1 3 4 5 6 7 8 9 10 11 13 14 
 16 18 19 21 22 23 24 25 27 28 29 30 
 31 36 37 38 42 43 44 45 47 48 49 50 
 51 52 53 54 55 57 58 59 63 65 67 68 
 69 70 71 72 73 74 75 76 77 78 81 82 
 83 84 85 86 89 91 94 95 97 98 
 26 
 12 13 16 17 18 20 32 34 35 37 41 43 
 44 46 51 53 55 63 64 68 70 75 80 85 
 86 96 
 23 
 2 6 8 21 22 27 31 33 35 43 45 46 
 51 56 58 78 80 81 85 87 88 96 98 
 41 
 2 3 4 5 8 9 10 11 17 18 19 21 
 32 34 37 42 46 48 49 51 53 54 56 57 
 62 64 65 67 68 70 72 74 78 79 81 82 
 83 84 92 94 98 
 70 
 1 2 3 4 5 6 7 12 13 15 16 17 
 20 21 22 25 27 29 30 31 32 33 34 35 
 36 37 39 40 41 43 45 46 47 48 49 50 
 51 53 54 55 56 57 59 61 62 63 65 66 
 68 69 70 71 72 73 74 77 78 79 80 81 
 85 87 89 90 91 92 93 95 96 97 
 67 
 2 3 4 5 7 8 10 13 14 15 17 18 
 19 20 22 23 24 26 28 30 31 32 34 35 
 36 37 39 41 42 45 46 47 48 49 50 51 
 52 55 56 58 59 62 63 64 65 68 70 71 
 73 74 75 76 77 78 79 80 81 82 83 85 
 90 91 93 94 95 96 97 
 72 
 1 2 5 6 7 8 9 10 11 12 13 14 
 15 17 18 20 21 22 23 25 26 29 30 31 
 32 34 35 36 37 38 39 40 41 42 45 46 
 47 49 50 51 52 53 54 55 56 58 59 60 
 61 63 64 65 68 69 72 74 76 79 80 81 
 82 83 84 85 86 87 92 93 94 95 96 97 
 25 
 2 4 12 17 27 28 30 36 43 50 53 59 
 69 71 72 73 74 80 83 85 89 92 93 97 
 98 
 54 
 2 4 6 7 9 11 14 15 16 17 18 19 
 20 23 24 25 29 30 31 34 38 39 41 43 
 48 53 54 55 57 60 61 63 67 69 70 71 
 72 73 74 75 77 78 80 83 84 85 86 87 
 88 89 90 93 96 98 
 3 
 18 63 76 
 75 
 1 2 3 4 6 7 8 9 10 11 12 14 
 16 17 19 20 21 22 23 24 25 26 27 28 
 29 32 34 35 36 37 38 39 41 42 44 45 
 46 49 51 52 54 55 57 60 61 62 63 64 
 65 66 67 69 71 72 75 76 77 78 80 81 
 82 84 85 86 87 88 89 90 91 93 94 95 
 96 97 98 
 13 
 3 6 11 15 16 18 22 33 46 52 54 60 
 86 
 25 
 1 2 6 9 11 16 18 21 23 32 33 35 
 49 51 52 53 59 65 66 68 69 73 74 76 
 91 
 80 
 1 2 4 7 8 9 10 11 13 14 15 16 
 17 20 21 22 23 24 25 26 27 28 29 30 
 32 33 34 35 36 37 38 39 40 42 43 44 
 45 46 47 48 49 50 53 55 56 57 58 59 
 60 63 64 65 66 68 69 70 71 72 73 74 
 75 76 77 80 81 82 83 84 85 87 88 89 
 90 91 93 94 95 96 97 98 
 58 
 1 3 4 5 6 7 9 12 13 15 16 19 
 22 23 26 27 28 29 30 34 35 38 39 40 
 42 44 45 46 50 53 56 57 58 60 61 62 
 64 65 66 69 70 71 72 73 75 76 78 80 
 81 82 83 86 87 88 91 93 96 97 
 66 
 1 4 5 6 9 10 12 13 15 16 18 19 
 20 21 23 24 29 30 32 33 36 37 38 39 
 40 41 43 44 48 49 50 51 52 55 56 57 
 58 59 60 63 64 66 67 68 70 72 74 77 
 78 79 80 81 82 84 85 86 87 88 89 91 
 93 94 95 96 97 98 
 45 
 3 4 5 6 7 8 9 15 17 21 25 26 
 27 28 30 31 33 34 35 39 43 47 49 50 
 55 58 59 60 63 67 70 71 73 75 81 82 
 83 84 86 87 89 90 94 97 98 
 23 
 2 6 12 19 24 30 35 39 43 46 49 50 
 52 57 58 64 66 76 78 83 87 89 94 
 85 
 1 2 3 4 6 7 8 9 10 11 12 13 
 14 15 16 18 19 20 21 22 24 25 27 28 
 29 30 31 33 34 35 36 37 38 39 40 41 
 42 43 44 45 46 47 49 50 51 52 53 54 
 55 56 57 59 60 61 62 63 64 65 67 68 
 69 70 71 72 74 75 76 77 78 79 81 82 
 83 85 86 87 88 89 91 92 93 94 95 96 
 98 
 64 
 1 3 4 7 10 13 14 15 16 17 18 19 
 20 21 22 24 25 27 28 29 31 32 33 34 
 35 36 37 40 44 45 47 49 50 51 55 56 
 57 59 60 62 65 68 70 71 73 74 75 76 
 77 80 81 82 84 86 87 88 89 91 92 93 
 95 96 97 98 
 9 
 6 19 37 45 58 76 77 83 92 
 84 
 1 2 3 4 5 6 8 9 10 11 13 14 
 15 16 18 19 21 22 23 24 25 26 29 31 
 32 33 34 35 36 37 38 39 40 41 42 43 
 44 45 46 47 49 50 51 52 53 54 55 56 
 57 58 59 60 62 63 64 67 68 69 70 71 
 72 73 74 76 77 78 80 81 82 83 85 86 
 87 88 89 90 91 92 93 94 95 96 97 98 
 38 
 1 2 4 5 8 11 13 14 16 21 24 35 
 39 41 42 46 49 50 51 52 54 60 63 64 
 67 71 72 74 77 79 84 86 87 90 92 94 
 95 98 
 21 
 3 4 9 23 29 32 33 36 40 43 51 53 
 58 71 75 76 78 84 86 91 98 
 68 
 1 2 5 6 7 10 11 12 13 14 15 18 
 20 22 23 24 25 26 27 28 29 30 31 32 
 33 36 37 39 40 41 42 43 45 47 48 50 
 51 52 53 54 55 56 58 59 60 61 62 63 
 64 65 66 68 69 70 71 73 75 76 78 79 
 81 82 85 88 89 94 96 97 
 4 
 14 38 44 52 
 24 
 1 2 5 10 12 15 25 28 31 40 45 46 
 49 52 54 58 59 60 62 65 73 82 84 85 
 27 
 5 8 10 13 15 22 25 28 33 34 44 47 
 48 49 52 60 64 67 69 70 72 76 78 80 
 81 87 90 
 86 
 2 3 4 5 6 7 8 9 10 11 12 13 
 14 15 17 18 19 20 21 22 23 24 25 27 
 29 30 31 32 33 34 35 36 37 38 39 40 
 41 42 44 45 46 47 48 49 50 51 52 53 
 54 55 56 57 58 59 60 62 63 64 65 66 
 67 68 69 70 71 73 74 76 77 78 79 80 
 81 82 85 87 88 89 90 91 92 93 95 96 
 97 98 
 93 
 1 2 3 4 5 6 7 8 9 10 11 12 
 13 14 15 16 17 18 19 20 21 22 23 24 
 25 27 28 29 30 31 32 33 34 35 36 37 
 38 39 40 41 42 43 44 45 47 48 49 50 
 51 52 53 54 55 56 57 59 60 61 62 63 
 64 65 66 67 68 69 70 71 72 74 75 76 
 77 78 79 80 81 82 83 84 85 86 87 88 
 89 90 91 93 94 95 96 97 98 
 7 
 11 19 23 30 84 90 94 
 87 
 2 4 5 6 7 8 9 10 11 12 13 15 
 16 17 18 19 20 21 22 23 24 25 26 27 
 28 31 32 33 34 37 38 39 40 41 42 43 
 44 45 46 47 48 49 50 51 52 53 54 55 
 56 57 58 60 61 62 63 64 65 66 67 68 
 69 70 71 72 73 74 75 76 77 78 79 80 
 81 82 83 84 85 86 88 89 90 92 94 95 
 96 97 98 
 13 
 7 9 24 27 32 36 39 45 55 59 77 96 
 97 
 98 
 1 2 3 4 5 6 7 8 9 10 11 12 
 13 14 15 16 17 18 19 20 21 22 23 24 
 25 26 27 28 29 30 31 32 33 34 35 36 
 37 38 39 40 41 42 43 44 45 46 47 48 
 49 50 51 52 53 54 55 56 57 58 59 60 
 61 62 63 64 65 66 67 68 69 70 71 72 
 73 74 75 76 77 78 79 80 81 82 83 84 
 85 86 87 88 89 90 91 92 93 94 95 96 
 97 98 
 7 
 10 28 31 34 35 63 81 
 45 
 1 2 5 7 8 9 14 15 16 17 18 22 
 31 32 33 34 38 40 43 44 45 51 52 53 
 56 57 61 66 68 70 72 73 75 76 77 81 
 82 84 85 88 90 91 92 94 97 
 28 
 6 11 12 19 21 24 26 31 43 45 50 51 
 52 53 64 65 68 69 70 77 80 84 85 90 
 93 94 96 98 
 32 
 2 4 9 10 11 19 21 23 26 33 36 37 
 39 42 45 46 47 49 52 55 57 60 69 70 
 71 73 74 77 78 81 82 83 
 12 
 6 25 30 46 49 50 51 52 73 77 87 97 
 19 
 14 29 31 37 40 46 52 54 58 62 63 65 
 66 71 73 82 90 95 98 
 4 
 30 71 80 87 
 68 
 2 5 7 8 9 11 12 13 15 16 18 19 
 22 24 25 26 27 28 29 30 31 32 33 34 
 36 37 40 41 42 43 44 46 47 48 49 50 
 52 53 54 57 60 61 63 64 65 67 68 69 
 70 71 73 74 75 76 78 79 80 81 85 86 
 89 90 91 93 94 95 96 97 
 2 
 57 94 
 74 
 2 3 4 5 6 7 9 10 12 13 14 16 
 17 18 19 20 21 22 26 27 29 30 31 32 
 33 34 35 36 38 39 40 41 42 43 44 45 
 46 47 48 49 52 53 54 55 58 60 62 64 
 66 68 69 70 71 72 74 75 76 77 79 80 
 81 82 83 84 85 86 89 90 91 92 93 94 
 96 98 
 36 
 1 2 4 8 12 16 19 20 21 23 24 26 
 29 33 35 36 38 40 41 42 45 46 48 49 
 51 53 57 58 63 79 87 89 90 91 92 94 
 37 
 2 4 6 7 12 13 15 17 19 25 26 27 
 34 39 40 42 44 48 53 54 55 57 59 60 
 61 65 69 70 74 76 79 80 85 90 94 96 
 97 
 92 
 1 2 3 4 5 6 7 9 10 11 12 13 
 14 15 16 17 18 19 20 21 22 23 24 25 
 26 27 28 29 30 31 32 33 34 36 38 39 
 40 41 42 43 44 45 46 47 48 49 50 53 
 54 55 56 57 58 59 60 61 62 63 64 65 
 66 67 68 69 70 71 72 73 74 75 76 77 
 78 79 80 81 82 83 84 85 86 87 88 89 
 91 92 93 94 95 96 97 98 
 35 
 1 5 6 8 12 13 14 15 16 17 19 22 
 24 28 34 35 36 38 39 49 50 52 55 57 
 58 62 66 69 71 72 84 86 88 95 98 
 46 
 3 4 5 9 10 11 12 13 14 17 18 19 
 20 22 23 24 27 28 29 30 31 33 38 40 
 41 42 46 50 51 55 58 61 62 65 66 67 
 72 75 77 81 82 84 91 93 94 95 
 19 
 4 7 11 17 18 20 21 38 39 51 54 60 
 62 74 75 79 87 92 98 
 78 
 1 2 3 6 7 8 9 10 11 12 13 14 
 15 16 17 19 21 22 23 24 25 26 27 28 
 30 31 32 34 35 36 37 38 39 40 41 42 
 43 44 45 46 47 48 49 51 52 53 54 55 
 56 57 58 59 60 61 62 63 64 65 67 68 
 69 72 73 74 78 80 81 84 85 86 89 90 
 91 92 93 95 96 97 
 4 
 20 22 62 98 
 98 
 1 2 3 4 5 6 7 8 9 10 11 12 
 13 14 15 16 17 18 19 20 21 22 23 24 
 25 26 27 28 29 30 31 32 33 34 35 36 
 37 38 39 40 41 42 43 44 45 46 47 48 
 49 50 51 52 53 54 55 56 57 58 59 60 
 61 62 63 64 65 66 67 68 69 70 71 72 
 73 74 75 76 77 78 79 80 81 82 83 84 
 85 86 87 88 89 90 91 92 93 94 95 96 
 97 98 
 23 
 14 16 18 19 22 23 25 26 30 31 38 45 
 51 57 58 61 65 69 77 86 87 90 96 
 64 
 1 4 5 6 8 9 10 11 12 13 16 17 
 18 20 21 22 23 25 26 28 29 30 32 33 
 34 35 36 37 38 40 41 42 43 44 46 48 
 49 50 52 53 54 55 56 57 60 61 65 68 
 70 73 75 77 78 79 80 81 82 88 90 91 
 93 95 96 97 
 43 
 4 7 11 14 16 18 22 24 25 26 28 30 
 33 37 38 40 43 45 47 50 51 54 55 56 
 61 63 64 65 66 67 73 77 78 80 82 85 
 86 87 88 91 92 93 98 
 50 
 5 6 8 9 10 11 18 19 22 23 30 31 
 32 33 39 43 44 45 46 48 51 52 53 55 
 56 62 63 64 67 68 70 71 72 73 75 76 
 78 80 81 86 87 88 89 90 92 93 94 96 
 97 98 
 55 
 6 9 10 11 12 13 15 16 18 19 20 24 
 26 27 28 31 33 34 40 41 42 43 44 46 
 47 51 52 53 54 55 56 57 59 61 64 65 
 72 74 75 76 77 78 79 80 81 82 86 88 
 91 92 93 94 95 97 98 
 28 
 1 5 12 22 23 25 27 28 35 38 39 40 
 41 48 54 56 57 58 63 67 68 74 75 78 
 82 87 91 92 
 94 
 1 2 3 4 5 6 7 8 9 10 12 13 
 14 15 16 17 18 19 20 21 22 23 24 25 
 26 27 28 29 30 31 32 34 35 36 37 38 
 39 40 41 42 43 45 46 47 48 49 51 52 
 53 54 55 56 57 58 59 60 61 62 63 64 
 65 66 67 68 69 70 71 72 73 74 75 76 
 77 78 79 80 81 82 83 84 85 86 87 88 
 89 90 91 92 93 94 95 96 97 98 
 79 
 1 2 3 5 6 7 8 9 10 11 13 14 
 15 16 17 18 19 20 21 22 23 24 25 27 
 28 29 30 31 32 34 36 37 39 40 42 43 
 44 45 46 47 48 50 52 53 55 56 57 58 
 59 60 62 63 64 65 66 68 69 70 71 72 
 73 75 76 77 78 79 82 83 84 85 86 87 
 88 90 92 93 94 96 98 
 3 
 1 51 81 
 14 
 2 14 19 30 57 67 69 72 81 82 85 87 
 97 98 
 33 
 7 8 10 13 16 17 18 26 27 30 33 38 
 39 42 43 50 51 52 53 54 56 64 66 67 
 69 71 83 87 89 92 94 97 98 
 75 
 1 2 3 4 5 6 7 9 10 11 12 13 
 14 16 17 18 19 26 27 28 30 31 32 33 
 34 35 36 37 39 40 41 42 44 46 47 49 
 50 51 52 53 54 55 57 58 60 61 63 64 
 66 67 69 70 71 73 74 75 76 77 78 80 
 81 83 84 85 86 88 89 90 91 92 93 94 
 95 96 98 
 13 
 12 26 35 37 45 47 49 54 79 87 88 91 
 94 
 37 
 6 8 9 13 17 19 22 23 25 26 29 30 
 31 32 33 38 40 44 45 47 48 49 52 53 
 55 60 61 62 66 74 75 77 78 85 88 90 
 98 
 47 
 3 4 5 8 10 11 12 18 19 20 21 24 
 26 27 29 30 31 34 37 42 45 46 51 60 
 61 63 65 66 67 68 71 72 75 76 77 78 
 83 84 86 87 88 90 91 93 95 96 97 
 77 
 1 3 4 5 6 7 9 10 11 12 13 16 
 17 18 19 20 21 23 24 25 26 28 29 30 
 31 33 34 37 38 40 41 43 44 45 46 47 
 48 50 51 52 54 55 56 58 59 60 61 62 
 63 64 65 67 69 72 73 74 75 76 77 78 
 80 81 82 83 84 85 86 87 88 89 91 92 
 93 94 95 96 97 
 80 
 1 2 4 6 7 8 9 10 11 13 14 16 
 17 18 20 21 22 23 24 25 26 28 29 30 
 32 34 36 37 39 42 43 44 45 46 47 48 
 50 51 52 53 54 55 56 58 59 60 61 63 
 64 65 66 67 68 69 70 71 72 73 74 75 
 76 77 78 79 80 81 82 83 84 85 88 89 
 90 91 92 93 94 95 96 97 
 27 
 7 8 9 10 14 15 17 19 27 38 49 58 
 59 60 61 62 63 70 77 78 80 82 90 92 
 94 97 98 
 61 
 4 6 7 9 10 12 13 14 16 17 18 21 
 22 23 24 25 26 28 33 34 35 36 37 38 
 39 40 41 45 47 48 50 51 54 55 57 58 
 59 63 66 68 70 72 73 74 75 78 79 80 
 81 82 83 86 88 90 91 92 93 94 95 97 
 98 
 15 
 10 11 25 34 37 42 50 58 70 76 83 85 
 91 93 97 
 97 
 1 2 3 4 5 6 7 8 9 10 11 12 
 13 14 15 16 17 18 19 20 21 22 23 24 
 25 26 27 28 29 30 31 32 33 35 36 37 
 38 39 40 41 42 43 44 45 46 47 48 49 
 50 51 52 53 54 55 56 57 58 59 60 61 
 62 63 64 65 66 67 68 69 70 71 72 73 
 74 75 76 77 78 79 80 81 82 83 84 85 
 86 87 88 89 90 91 92 93 94 95 96 97 
 98 
 36 
 2 3 7 11 18 19 22 24 25 26 28 29 
 30 31 33 42 44 45 47 49 51 54 59 63 
 68 69 78 82 83 85 88 92 93 94 95 97 
 67 
 2 3 4 5 6 7 8 11 12 13 15 16 
 19 20 21 22 23 25 26 27 29 31 32 33 
 34 35 38 42 43 44 45 47 48 50 52 54 
 56 57 58 60 62 64 65 68 69 70 71 72 
 73 74 78 79 80 81 82 83 84 85 86 88 
 90 91 92 93 95 97 98 
 27 
 1 2 8 13 15 16 17 18 21 25 26 27 
 29 31 41 43 45 48 49 52 55 63 70 77 
 83 87 95 
 53 
 1 2 3 10 12 14 16 17 18 23 25 26 
 28 33 34 36 37 38 39 40 45 47 51 53 
 54 58 60 61 63 64 66 67 68 69 70 71 
 72 73 74 75 76 77 79 80 81 82 85 88 
 90 93 95 96 98 
 58 
 1 2 5 6 9 14 16 17 18 20 21 24 
 26 30 32 35 36 37 38 39 40 43 45 46 
 47 48 55 56 57 59 60 61 62 63 65 66 
 67 68 69 72 73 75 76 77 78 79 80 83 
 85 87 88 89 90 91 94 96 97 98 
 19 
 3 7 13 25 26 29 30 33 54 60 61 62 
 64 75 86 87 93 94 96 
 55 
 1 2 3 4 5 6 8 9 10 11 12 14 
 16 17 19 22 24 25 26 27 28 31 39 40 
 43 44 46 47 49 51 52 53 56 58 61 63 
 65 66 67 68 69 71 75 77 79 83 85 86 
 89 90 91 92 93 96 97 
 18 
 16 17 22 36 37 40 50 54 61 71 82 84 
 85 87 88 91 95 98 
 9 
 5 6 21 24 52 54 58 67 90 
 48 
 4 7 8 9 10 16 17 18 19 20 21 23 
 24 26 27 28 29 30 31 32 33 34 35 36 
 37 38 39 40 41 42 43 49 54 57 58 60 
 62 66 71 72 74 78 83 85 88 89 97 98 
 96 
 1 2 3 4 5 6 7 8 9 10 11 12 
 13 14 16 17 18 19 20 21 22 23 24 25 
 26 27 28 29 30 31 32 33 35 36 37 38 
 39 40 41 42 43 44 45 46 47 48 49 50 
 51 52 53 54 55 56 57 58 59 60 61 62 
 63 64 65 66 67 68 69 70 71 72 73 74 
 75 76 77 78 79 80 81 82 83 84 85 86 
 87 88 89 90 91 92 93 94 95 96 97 98 
 16 
 1 8 11 21 33 39 49 58 62 65 67 68 
 83 85 94 97 
 38 
 1 2 4 5 8 12 14 18 19 23 24 29 
 33 36 38 40 42 45 47 48 52 53 56 64 
 68 70 75 80 81 82 84 85 86 87 88 93 
 95 97 
 19 
 4 9 10 16 17 19 26 31 33 45 46 55 
 64 65 67 70 81 84 85 
 85 
 1 3 4 5 6 7 10 11 12 13 14 15 
 16 17 18 19 20 21 22 24 25 26 27 28 
 30 31 32 33 34 35 36 37 39 40 41 43 
 44 46 47 48 49 50 51 53 54 55 56 57 
 58 59 60 61 62 63 64 65 66 67 68 69 
 72 73 74 75 76 77 78 79 80 81 82 84 
 85 86 88 89 90 91 92 93 94 95 96 97 
 98 
 7 
 4 9 40 42 61 87 91 
 53 
 2 3 4 5 6 10 11 12 13 15 18 20 
 23 25 28 29 30 34 35 37 39 41 43 44 
 45 46 47 54 55 56 57 58 59 60 63 65 
 66 67 68 69 70 72 75 79 82 86 89 90 
 91 92 93 96 97 
 10 
 1 2 19 24 36 44 54 73 87 90 
 59 
 1 2 3 4 6 8 10 11 12 14 16 18 
 24 27 29 30 31 33 36 37 38 39 41 43 
 44 45 46 49 50 52 53 54 55 58 59 61 
 65 68 69 71 72 73 74 77 79 80 81 82 
 83 84 85 86 87 90 92 94 95 96 98 
 71 
 1 2 4 6 11 12 13 14 17 18 19 20 
 21 22 24 25 26 28 29 30 31 32 33 34 
 35 38 39 40 45 46 47 48 49 50 51 52 
 53 54 55 56 57 58 59 60 61 62 63 64 
 65 66 67 69 70 71 73 74 75 76 77 79 
 80 83 84 85 86 87 89 90 91 95 97 
 39 
 6 7 10 11 13 14 15 17 19 21 25 26 
 29 31 33 35 37 42 46 48 50 51 52 58 
 59 60 61 64 66 70 72 74 75 79 85 90 
 92 94 97 
 36 
 7 8 15 17 18 19 20 22 23 24 30 31 
 32 36 41 43 44 49 54 59 63 64 66 67 
 68 74 75 77 82 85 88 89 90 93 95 97 
 56 
 1 3 5 6 9 10 12 13 14 15 18 19 
 21 22 23 24 26 28 29 30 31 32 33 34 
 36 37 38 39 43 44 45 47 48 50 51 52 
 56 57 58 63 65 67 72 73 78 79 81 82 
 87 88 89 91 92 94 95 98 
 9 
 8 38 39 47 61 72 81 91 92 
 62 
 2 4 6 7 10 11 13 14 16 17 18 20 
 23 24 25 26 27 28 29 32 35 37 38 39 
 41 42 43 44 46 47 48 50 51 52 53 54 
 55 56 57 59 60 61 62 65 66 70 71 73 
 75 77 80 81 85 86 89 90 91 92 94 96 
 97 98 
 93 
 1 2 3 4 5 6 7 8 9 10 11 12 
 13 14 15 16 17 18 19 20 21 22 23 25 
 26 27 28 29 30 31 32 33 35 36 37 38 
 39 40 41 42 43 44 45 46 47 48 49 50 
 51 52 53 54 55 56 57 58 59 60 61 62 
 63 64 65 66 67 68 70 71 72 73 74 75 
 76 78 79 80 81 82 83 84 85 86 87 88 
 89 91 92 93 94 95 96 97 98 
 78 
 1 2 5 6 7 8 10 11 12 14 15 16 
 17 18 20 21 22 24 25 26 27 28 30 31 
 33 34 36 38 40 41 42 43 44 45 46 47 
 48 49 50 51 52 53 55 56 57 59 60 61 
 62 63 64 65 66 67 68 69 70 72 73 74 
 75 77 78 79 80 81 82 83 84 85 88 89 
 90 91 92 93 95 98 
 90 
 2 3 4 5 6 7 8 9 10 11 12 13 
 15 16 17 18 20 21 22 23 24 25 26 27 
 28 29 30 32 34 35 36 37 39 40 41 42 
 43 44 45 46 47 49 50 51 52 53 54 55 
 56 57 58 59 60 61 62 63 64 65 66 67 
 68 69 70 71 72 74 75 76 77 78 79 80 
 81 82 83 84 85 86 87 88 89 90 91 92 
 93 94 95 96 97 98 
 17 
 8 12 13 20 33 42 43 46 59 65 74 76 
 82 84 85 87 92 
 7 
 8 10 12 23 27 83 93 
 34 
 4 5 12 16 20 22 23 27 29 30 32 34 
 36 37 39 47 50 52 53 55 57 60 62 65 
 66 68 76 85 88 92 94 95 97 98 
 78 
 1 2 4 5 7 8 10 11 13 14 15 16 
 17 18 19 20 22 23 24 25 26 27 28 29 
 30 31 32 33 35 36 37 38 39 40 41 42 
 44 45 46 47 48 49 51 52 53 54 56 57 
 58 59 60 61 62 64 65 66 67 69 70 72 
 73 74 75 76 78 81 84 85 87 88 89 90 
 91 92 95 96 97 98 
 93 
 1 2 3 4 5 6 7 8 9 10 11 12 
 14 17 18 19 20 21 22 23 24 25 26 27 
 28 29 30 31 32 33 34 35 36 37 38 39 
 40 41 42 43 45 46 47 48 49 50 51 52 
 53 55 56 57 58 59 60 61 62 63 64 65 
 66 67 68 69 70 71 72 73 74 75 76 77 
 78 79 80 81 82 83 84 85 86 87 88 89 
 90 91 92 93 94 95 96 97 98 
 91 
 2 3 4 5 6 7 8 9 10 11 12 13 
 14 16 17 18 19 20 21 22 23 24 25 26 
 27 28 29 30 31 32 33 34 35 36 37 38 
 39 40 41 42 43 44 45 46 47 48 49 50 
 53 54 55 56 57 58 59 60 61 62 63 64 
 65 66 67 68 69 70 71 72 73 74 75 76 
 77 78 79 80 81 82 83 84 85 86 87 88 
 89 90 93 94 95 96 97 
 72 
 1 2 3 4 5 6 7 8 11 13 14 15 
 16 18 19 20 21 22 23 24 25 26 27 29 
 31 32 34 35 36 37 38 39 41 42 43 45 
 46 47 49 52 53 54 55 57 59 60 63 66 
 68 69 71 72 73 74 75 77 78 79 80 82 
 83 84 85 86 87 89 90 91 92 93 95 98 
 15 
 3 4 7 21 25 31 32 33 46 65 68 70 
 81 91 98 
 80 
 1 2 3 4 5 6 7 9 10 11 12 13 
 14 15 16 19 20 21 23 24 25 26 27 28 
 29 31 32 33 35 36 37 38 39 41 42 43 
 44 45 46 47 49 50 51 52 53 54 55 56 
 57 58 59 60 61 64 65 69 70 72 74 75 
 76 77 78 79 80 81 82 83 84 85 87 88 
 89 90 91 92 93 96 97 98 
 79 
 2 3 4 5 6 7 8 9 11 12 13 14 
 15 16 17 18 19 20 23 24 25 27 28 30 
 31 32 33 34 35 36 38 40 41 43 44 45 
 46 47 48 49 50 51 52 53 54 55 56 57 
 59 60 62 63 64 65 66 67 69 71 72 74 
 75 76 78 80 81 82 83 84 85 87 88 89 
 90 91 92 93 94 96 98 
 84 
 1 2 3 4 5 6 7 8 10 11 12 13 
 15 16 17 18 19 20 21 22 23 24 27 28 
 29 31 32 34 35 36 37 38 39 40 41 42 
 43 44 45 46 47 48 49 50 51 52 54 55 
 56 57 58 59 61 63 65 66 67 69 70 71 
 72 73 74 75 76 77 78 79 80 81 82 83 
 84 86 87 89 90 91 92 93 94 95 97 98 
 94 
 1 2 3 4 5 6 7 8 9 10 11 12 
 13 14 15 16 17 18 19 20 21 22 23 24 
 25 26 27 28 29 30 31 32 33 34 35 36 
 37 38 39 40 41 42 44 45 46 47 48 49 
 50 51 52 53 54 56 57 58 59 60 61 62 
 63 64 65 66 67 68 69 70 71 73 74 75 
 76 77 78 79 80 81 82 83 84 85 86 87 
 88 89 91 92 93 94 95 96 97 98 
 81 
 1 3 5 6 7 8 9 10 11 12 13 14 
 16 17 18 19 20 21 22 24 25 26 27 28 
 29 30 32 33 34 36 37 38 39 40 41 42 
 43 45 47 48 49 51 52 53 54 56 57 59 
 60 61 62 63 65 66 68 69 70 71 72 73 
 74 76 79 80 81 82 83 84 86 87 88 89 
 90 91 92 93 94 95 96 97 98 
 98 
 1 2 3 4 5 6 7 8 9 10 11 12 
 13 14 15 16 17 18 19 20 21 22 23 24 
 25 26 27 28 29 30 31 32 33 34 35 36 
 37 38 39 40 41 42 43 44 45 46 47 48 
 49 50 51 52 53 54 55 56 57 58 59 60 
 61 62 63 64 65 66 67 68 69 70 71 72 
 73 74 75 76 77 78 79 80 81 82 83 84 
 85 86 87 88 89 90 91 92 93 94 95 96 
 97 98 
 45 
 1 3 5 9 10 13 15 16 24 25 27 28 
 29 30 32 35 39 40 41 43 45 49 52 53 
 55 57 60 61 65 68 69 70 73 74 75 78 
 80 81 82 83 87 89 93 94 98 
 86 
 1 2 3 4 5 7 8 9 10 11 12 13 
 14 15 16 18 20 21 22 23 24 25 26 27 
 28 29 30 31 32 33 34 35 36 37 38 40 
 41 42 43 44 45 46 47 48 49 50 52 53 
 54 55 56 57 58 59 60 61 62 64 65 66 
 69 70 71 72 73 74 75 76 77 78 79 80 
 81 82 84 85 87 88 89 90 91 94 95 96 
 97 98 
 74 
 1 2 3 4 5 6 11 12 13 16 18 19 
 20 21 22 23 24 25 26 27 28 30 31 32 
 36 37 38 39 41 43 44 45 46 47 54 55 
 56 57 59 60 61 62 63 64 65 66 67 68 
 69 70 71 73 75 76 77 78 79 80 81 82 
 83 84 85 86 88 89 90 91 92 93 94 95 
 96 97 
 83 
 1 2 3 5 7 8 9 10 11 12 13 15 
 16 17 18 20 21 22 23 24 25 28 29 31 
 33 34 35 36 37 39 40 41 42 43 44 45 
 46 47 48 49 50 52 53 55 56 57 58 59 
 61 62 63 64 65 66 67 68 69 70 71 73 
 74 75 76 77 78 79 80 81 82 83 85 86 
 87 89 90 91 92 93 94 95 96 97 98 
 68 
 1 2 4 5 8 9 10 12 13 14 16 17 
 18 20 21 22 23 24 26 28 29 31 32 33 
 35 36 37 38 39 40 41 42 43 46 47 48 
 51 54 57 58 59 60 62 65 66 67 68 69 
 70 72 73 75 76 78 80 81 83 86 88 89 
 90 91 93 94 95 96 97 98 
 80 
 2 3 4 5 6 7 8 9 10 11 12 14 
 16 17 18 19 20 21 22 23 24 25 26 27 
 29 30 31 32 33 34 35 36 37 38 39 40 
 41 42 43 44 45 46 47 48 49 50 51 52 
 53 56 57 58 59 63 65 66 67 68 69 70 
 71 72 75 78 79 80 83 84 86 87 88 89 
 90 91 92 93 94 95 97 98 
 58 
 1 3 4 6 7 8 13 15 16 18 19 21 
 22 23 25 26 29 32 33 36 38 39 41 43 
 44 45 48 49 51 52 53 54 55 57 58 61 
 63 64 65 66 68 69 70 71 73 74 75 76 
 77 81 82 83 87 89 91 94 96 97 
 80 
 1 2 3 4 5 6 7 8 9 11 12 13 
 15 16 17 18 19 20 21 22 23 24 25 29 
 30 31 32 33 34 35 36 37 39 40 41 42 
 43 48 49 51 52 53 55 57 58 59 60 61 
 62 63 65 66 67 68 69 70 71 72 73 74 
 75 76 77 78 79 80 82 84 85 86 87 89 
 90 91 92 94 95 96 97 98 
 5 
 28 50 57 74 78 
 54 
 3 5 6 11 12 13 14 16 17 18 20 21 
 22 23 27 29 31 33 36 37 39 40 44 45 
 46 47 49 50 51 53 54 57 58 59 61 62 
 63 66 68 71 72 73 74 75 76 80 83 84 
 87 92 93 94 97 98 
 33 
 5 8 12 15 17 18 19 25 30 38 39 42 
 43 44 46 48 50 51 56 60 61 62 64 66 
 72 75 78 86 89 90 92 93 94 
 5 
 16 59 65 89 90 
 44 
 1 2 6 7 8 15 24 26 27 28 30 31 
 32 33 34 35 37 38 40 43 46 53 55 58 
 59 62 65 66 67 69 70 71 72 74 77 80 
 83 86 88 89 92 94 95 97 
 31 
 1 4 5 7 8 9 10 11 12 14 18 21 
 24 26 28 35 39 44 49 54 57 59 61 63 
 68 72 76 83 88 91 96 
 59 
 3 4 6 7 8 9 12 13 14 15 17 18 
 20 23 24 25 26 27 29 30 31 32 36 38 
 39 40 41 42 43 44 47 48 50 51 53 55 
 57 61 62 63 64 66 69 70 73 74 78 79 
 80 81 82 85 86 88 89 90 91 93 96 
 15 
 11 13 17 18 19 26 38 65 79 81 82 84 
 87 93 98 
 98 
 1 2 3 4 5 6 7 8 9 10 11 12 
 13 14 15 16 17 18 19 20 21 22 23 24 
 25 26 27 28 29 30 31 32 33 34 35 36 
 37 38 39 40 41 42 43 44 45 46 47 48 
 49 50 51 52 53 54 55 56 57 58 59 60 
 61 62 63 64 65 66 67 68 69 70 71 72 
 73 74 75 76 77 78 79 80 81 82 83 84 
 85 86 87 88 89 90 91 92 93 94 95 96 
 97 98 
 47 
 1 5 6 7 8 9 11 16 19 20 23 25 
 28 30 31 36 40 41 43 44 45 47 50 51 
 52 57 58 60 64 65 67 68 71 73 76 80 
 82 83 85 86 87 88 89 90 92 96 97 
 20 
 1 11 14 23 24 25 26 34 37 38 57 62 
 63 65 69 70 79 89 90 94 
 69 
 1 3 4 7 9 10 11 12 13 14 17 18 
 19 20 21 23 25 27 28 29 31 32 33 34 
 35 37 38 40 41 42 44 45 47 48 50 51 
 52 53 55 59 60 61 62 63 64 66 67 69 
 71 72 73 75 76 77 78 79 80 81 82 83 
 84 86 87 90 93 94 96 97 98 
 14 
 6 15 36 38 44 48 49 53 58 62 74 84 
 90 95 
 56 
 1 3 4 7 9 11 13 14 15 16 17 18 
 19 21 23 24 27 32 34 35 36 37 38 39 
 43 44 45 46 47 49 52 53 57 59 61 62 
 65 66 67 69 71 74 76 77 79 80 81 83 
 84 88 90 91 92 94 95 98 
 91 
 1 2 3 4 5 6 7 8 9 10 11 12 
 13 14 16 17 18 19 20 21 22 23 24 25 
 26 27 28 29 30 31 32 33 34 35 36 37 
 38 39 40 41 42 43 44 45 46 47 48 49 
 50 51 54 55 57 58 59 60 61 62 63 64 
 65 66 67 68 69 70 71 72 74 75 76 77 
 78 79 80 81 82 83 84 85 86 88 89 90 
 91 92 93 95 96 97 98 
 50 
 5 7 8 10 11 12 13 16 18 20 21 22 
 25 26 27 28 29 32 33 34 42 43 44 45 
 47 53 55 56 58 60 63 64 66 70 71 72 
 73 75 76 79 80 81 83 86 88 89 90 91 
 96 97 
 45 
 2 3 4 6 10 11 15 16 18 21 23 25 
 27 29 30 32 33 35 36 37 38 41 43 45 
 50 53 54 56 58 63 64 67 69 70 71 79 
 80 86 87 88 90 92 93 94 98 
 79 
 1 2 3 4 5 6 7 8 9 10 11 12 
 14 16 17 18 19 24 25 26 27 28 29 30 
 32 33 34 35 37 38 39 40 41 42 43 45 
 46 47 48 49 50 51 52 53 54 55 56 57 
 58 59 60 61 62 64 65 66 67 68 69 70 
 71 72 73 74 76 79 80 83 84 87 88 89 
 90 91 93 94 95 96 98 
 57 
 2 6 7 8 10 13 14 16 20 21 22 23 
 24 25 26 27 28 29 31 32 33 34 35 36 
 37 38 40 42 43 44 45 49 50 51 52 55 
 57 59 60 62 66 69 74 75 77 79 81 84 
 85 87 88 90 92 93 96 97 98 
 63 
 5 8 9 10 11 12 14 15 16 18 19 20 
 22 24 25 27 29 30 31 33 35 36 37 39 
 40 42 43 44 45 48 50 51 52 54 55 58 
 59 60 61 62 64 66 67 70 71 72 73 75 
 76 77 78 79 81 82 83 84 89 92 93 94 
 95 97 98 
 3 
 47 83 89 
 3 
 31 56 77 
 46 
 1 2 5 6 7 9 11 12 15 16 18 24 
 26 29 37 38 39 40 42 44 46 47 48 49 
 50 51 52 54 58 60 62 65 67 69 70 71 
 72 73 76 88 89 92 94 95 96 97 
 94 
 1 2 3 4 5 6 7 8 9 10 11 12 
 13 14 15 16 17 18 19 20 21 22 23 24 
 25 26 27 28 29 30 31 32 33 34 35 36 
 37 38 39 40 41 42 43 44 45 46 47 48 
 49 50 53 54 55 56 57 58 59 60 61 62 
 63 64 65 66 67 68 69 71 72 73 74 75 
 76 78 79 80 81 82 83 84 85 86 87 88 
 89 90 91 92 93 94 95 96 97 98 
 80 
 2 3 4 5 6 7 8 9 10 13 15 16 
 17 19 20 21 23 24 26 27 29 30 31 33 
 35 36 37 38 39 40 41 42 44 46 47 48 
 49 50 51 52 53 54 55 56 57 58 60 62 
 63 64 65 66 67 68 69 70 71 72 73 74 
 76 78 79 80 81 82 83 84 85 86 87 88 
 90 91 92 94 95 96 97 98 
 37 
 3 5 14 15 17 18 19 20 21 26 28 33 
 34 37 39 40 41 44 45 46 51 54 60 61 
 65 66 67 68 70 74 80 84 85 86 87 88 
 91 
 86 
 1 2 3 4 6 7 8 9 10 11 12 13 
 14 15 17 18 19 20 21 22 23 24 25 26 
 27 28 29 30 31 32 33 34 35 36 37 38 
 39 41 43 44 45 46 47 48 49 50 52 53 
 54 55 58 59 60 61 62 64 65 66 67 68 
 69 70 71 72 73 74 75 76 77 78 79 80 
 81 82 83 84 85 89 90 91 92 93 94 95 
 96 97 
 51 
 1 2 4 5 6 9 11 13 16 18 19 20 
 21 25 26 28 33 35 36 39 40 44 46 48 
 49 52 55 57 58 60 61 63 64 65 67 68 
 70 72 73 75 78 84 85 86 87 89 91 92 
 94 95 98 
 29 
 10 11 12 20 21 24 34 38 39 41 42 49 
 50 58 62 63 66 69 73 77 78 82 86 87 
 88 92 95 96 97 
 84 
 1 3 4 5 6 7 9 10 11 12 13 14 
 15 16 17 18 19 21 22 24 25 26 27 28 
 29 30 31 32 36 37 39 41 42 43 44 45 
 46 47 49 51 52 53 54 55 56 57 58 59 
 60 61 62 63 64 65 66 67 68 69 71 72 
 73 74 75 77 78 79 80 81 82 83 84 86 
 87 88 89 90 91 92 93 94 95 96 97 98 
 63 
 1 3 5 6 7 8 10 11 12 13 14 19 
 20 21 22 23 26 29 30 32 33 34 36 37 
 39 40 41 43 45 46 47 48 49 53 54 55 
 57 58 59 60 61 63 64 65 67 68 69 70 
 72 73 75 76 78 79 81 82 83 86 88 92 
 93 96 97 
 55 
 1 2 3 4 8 9 10 11 13 22 23 24 
 25 26 27 31 33 34 36 39 40 41 44 45 
 47 51 52 55 58 61 62 63 64 65 67 68 
 69 70 71 72 73 74 75 78 80 81 82 85 
 86 89 93 94 95 96 98 
 98 
 1 2 3 4 5 6 7 8 9 10 11 12 
 13 14 15 16 17 18 19 20 21 22 23 24 
 25 26 27 28 29 30 31 32 33 34 35 36 
 37 38 39 40 41 42 43 44 45 46 47 48 
 49 50 51 52 53 54 55 56 57 58 59 60 
 61 62 63 64 65 66 67 68 69 70 71 72 
 73 74 75 76 77 78 79 80 81 82 83 84 
 85 86 87 88 89 90 91 92 93 94 95 96 
 97 98 
 9 
 1 15 32 47 77 89 92 96 98 
 8 
 18 57 58 60 64 88 91 98 
 12 
 13 17 18 22 27 29 42 45 47 57 70 83 
 10 
 24 28 47 54 66 67 68 71 91 94 
 49 
 2 5 7 8 10 11 12 15 17 18 19 21 
 24 26 27 29 32 35 36 38 39 40 42 45 
 47 50 53 54 56 58 60 62 70 71 73 74 
 75 77 78 79 80 84 87 90 91 93 94 95 
 96 
 48 
 3 4 6 8 10 14 16 17 23 25 26 28 
 29 30 31 33 35 36 37 38 39 40 41 43 
 45 46 47 51 54 57 58 60 61 66 68 71 
 72 74 75 76 78 79 81 82 89 94 95 97 
 34 
 3 4 7 9 19 20 21 25 27 34 35 36 
 38 41 42 44 46 47 52 53 64 67 68 70 
 78 82 85 87 89 90 92 93 96 98 
 37 
 1 4 7 8 18 19 20 23 27 32 35 38 
 42 43 46 51 56 58 59 63 65 68 74 75 
 76 77 78 80 84 85 86 87 88 92 93 97 
 98 
 75 
 1 2 3 4 6 7 8 9 11 13 14 16 
 17 19 22 23 25 26 27 28 29 31 33 35 
 36 37 38 39 41 42 43 44 45 46 47 48 
 50 52 53 54 55 56 58 59 60 61 62 63 
 64 66 67 68 69 71 73 75 76 77 78 80 
 81 82 83 85 86 87 88 89 90 91 92 93 
 95 97 98 
 40 
 1 5 6 7 9 10 13 16 17 19 22 26 
 27 30 32 35 39 41 45 46 52 53 56 57 
 63 65 66 67 72 74 77 81 85 87 89 90 
 91 92 93 98 
 64 
 1 2 3 4 5 7 9 10 12 14 15 17 
 18 27 28 30 31 32 33 34 40 41 42 43 
 44 46 48 49 51 52 53 54 55 58 59 60 
 61 62 64 65 67 68 69 70 72 73 74 75 
 78 79 80 81 82 84 85 86 87 88 89 90 
 93 94 95 97 
 71 
 2 3 4 5 6 9 10 11 13 16 19 22 
 23 24 25 28 31 32 33 34 35 36 37 39 
 40 41 43 44 45 46 47 48 49 50 51 53 
 55 56 57 58 60 61 62 63 64 66 67 68 
 70 71 72 74 75 76 77 78 79 80 81 82 
 83 85 86 87 88 89 90 91 95 96 97 
 70 
 1 3 4 6 10 12 13 14 15 19 21 22 
 24 25 26 27 28 31 32 33 34 35 36 37 
 38 39 40 41 42 43 44 45 46 48 49 50 
 51 52 53 54 57 58 60 61 63 64 66 67 
 68 69 70 72 73 74 75 76 78 79 80 81 
 82 84 85 86 88 90 92 94 95 98 
 31 
 3 4 16 19 21 23 25 27 31 32 34 37 
 40 49 54 59 60 61 64 67 68 77 78 81 
 86 88 91 94 95 96 97 
 17 
 22 27 32 36 40 41 44 51 54 57 61 70 
 77 79 83 86 93 
 32 
 1 2 5 12 13 14 19 25 29 30 31 33 
 37 41 44 45 51 52 55 56 58 62 63 66 
 67 73 78 79 80 91 92 97 
 41 
 3 5 6 8 10 13 14 16 19 21 23 30 
 31 32 38 39 40 42 43 45 47 50 52 58 
 61 62 64 67 68 70 73 74 78 79 86 89 
 90 93 94 97 98 
 26 
 5 7 10 11 21 23 27 31 35 36 42 43 
 45 61 63 64 66 70 76 77 79 80 83 86 
 94 98 
 56 
 3 4 5 7 9 10 14 15 16 17 18 19 
 20 21 22 24 25 27 28 32 33 34 35 36 
 37 39 40 41 48 51 53 55 56 57 64 67 
 69 70 72 75 76 77 78 79 82 84 86 88 
 89 90 91 92 93 94 95 97 
 29 
 2 12 14 16 17 20 27 28 32 39 40 41 
 46 47 51 56 59 62 68 73 75 77 78 83 
 86 91 92 93 97 
 69 
 1 2 4 5 6 7 8 10 11 13 14 15 
 17 19 20 21 22 23 24 26 27 29 30 31 
 32 35 36 38 39 42 43 44 45 46 47 48 
 49 50 53 55 56 57 58 60 61 62 64 65 
 66 67 68 69 71 72 73 74 81 82 83 84 
 86 87 88 89 91 92 93 94 95 
 59 
 1 2 4 5 8 9 11 14 16 17 20 21 
 22 23 24 25 26 28 30 31 33 34 35 36 
 37 38 39 40 41 44 48 50 52 53 54 55 
 56 59 61 62 64 65 68 70 71 73 75 80 
 81 84 85 86 87 88 91 92 93 94 96 
 51 
 2 3 4 5 6 10 11 14 17 18 19 20 
 22 23 24 25 26 27 28 31 32 33 35 36 
 41 43 48 49 50 52 53 55 58 60 63 64 
 69 70 75 78 80 82 85 86 87 88 92 94 
 96 97 98 
 83 
 1 2 3 5 6 8 9 10 11 12 13 14 
 15 17 19 21 23 26 27 28 29 30 31 32 
 33 34 35 36 37 38 39 40 41 42 43 44 
 45 47 48 49 50 51 52 53 54 55 56 57 
 58 59 60 61 62 63 64 65 66 67 68 69 
 71 72 73 75 76 77 78 79 80 81 82 84 
 85 87 88 89 90 91 92 93 94 95 98 
 78 
 1 2 3 5 7 8 10 11 12 13 14 15 
 17 18 20 22 23 24 25 26 27 28 29 31 
 32 33 34 35 36 37 38 39 41 42 43 44 
 45 46 47 48 50 51 53 56 57 58 59 60 
 62 63 65 67 68 70 71 73 74 75 76 77 
 78 79 81 82 83 84 85 87 89 90 91 92 
 93 94 95 96 97 98 
 19 
 2 7 8 10 12 13 21 31 32 35 36 37 
 42 43 44 55 61 72 87 
 42 
 4 6 8 9 13 14 16 20 26 27 31 36 
 37 39 42 43 44 45 47 48 50 58 59 61 
 62 64 66 68 70 72 74 76 79 80 81 82 
 83 84 87 92 93 98 
 71 
 2 3 4 5 8 10 12 13 15 17 18 19 
 20 21 22 23 24 25 27 28 30 31 32 35 
 36 37 38 39 40 41 42 43 44 45 46 49 
 50 51 52 54 55 57 60 61 62 63 64 65 
 66 67 68 69 70 72 73 74 75 76 78 79 
 81 82 83 84 85 89 90 92 93 95 96 
 23 
 1 11 13 16 21 27 36 43 47 48 52 56 
 62 71 75 77 81 82 89 91 93 95 97 
 92 
 1 2 3 4 5 6 7 8 9 10 11 12 
 13 14 15 17 18 19 20 21 22 23 24 25 
 26 27 29 30 31 32 33 34 35 36 37 38 
 39 40 41 42 43 44 45 46 47 48 49 50 
 52 53 54 55 56 57 59 60 61 62 63 64 
 65 66 67 68 69 70 71 72 73 74 75 76 
 77 78 79 80 81 82 83 84 85 86 88 89 
 90 92 93 94 95 96 97 98 
 8 
 20 37 39 51 52 55 61 92 
 97 
 1 3 4 5 6 7 8 9 10 11 12 13 
 14 15 16 17 18 19 20 21 22 23 24 25 
 26 27 28 29 30 31 32 33 34 35 36 37 
 38 39 40 41 42 43 44 45 46 47 48 49 
 50 51 52 53 54 55 56 57 58 59 60 61 
 62 63 64 65 66 67 68 69 70 71 72 73 
 74 75 76 77 78 79 80 81 82 83 84 85 
 86 87 88 89 90 91 92 93 94 95 96 97 
 98 
 38 
 1 4 12 13 14 16 18 19 20 21 22 31 
 32 34 35 37 38 40 41 44 52 54 55 59 
 60 68 70 71 73 75 78 80 81 86 90 94 
 96 97 
 23 
 4 5 8 12 22 27 30 34 38 43 46 47 
 55 58 60 65 68 74 75 80 89 96 98 
 81 
 1 3 4 5 6 7 8 9 10 12 13 14 
 15 17 18 19 20 21 22 25 26 27 28 30 
 31 33 35 36 37 38 39 40 41 42 43 44 
 45 46 47 48 49 50 51 52 53 54 56 57 
 59 60 62 63 64 66 67 68 69 70 71 72 
 73 74 75 76 77 78 80 81 83 85 86 87 
 89 90 91 92 94 95 96 97 98 
 12 
 8 18 33 45 57 65 70 83 85 91 92 96 
 61 
 1 2 5 7 8 10 11 12 13 14 16 17 
 18 20 21 23 24 25 29 30 31 32 33 36 
 37 38 39 41 42 43 46 48 49 51 52 53 
 57 58 60 61 62 63 65 67 69 71 73 75 
 76 77 78 79 83 86 87 93 94 95 96 97 
 98 
 88 
 2 3 4 6 7 8 9 10 11 12 13 14 
 15 16 17 18 19 20 21 22 23 24 25 26 
 27 28 29 30 31 32 33 35 36 37 38 39 
 40 41 43 44 45 46 49 50 51 52 53 54 
 56 57 58 59 60 61 62 63 64 65 66 67 
 68 69 70 73 74 75 76 78 79 80 81 82 
 83 84 85 86 87 88 89 90 91 92 93 94 
 95 96 97 98 
 7 
 6 12 16 41 53 56 88 
 38 
 2 4 5 8 9 11 14 15 16 18 20 23 
 24 25 26 29 31 36 39 41 48 58 60 61 
 63 64 65 67 72 75 76 78 80 86 89 93 
 94 98 
 43 
 1 3 4 7 8 10 11 13 16 19 21 24 
 26 28 29 30 31 33 34 35 36 39 42 44 
 52 54 55 57 59 60 61 64 66 68 70 71 
 76 78 80 82 86 95 98 
 33 
 5 9 12 16 19 20 28 30 31 33 38 39 
 40 41 42 43 46 48 50 51 53 65 66 73 
 76 77 79 84 86 90 95 96 97 
 